c instance by G2
c solution = 1010001011110
c Known solution cost is 527 
p cnf 13 30
w 3 3 44 47 21 97 38 59 32 62 9 52 60
8 1 -10 0
2 9 -3 0
-9 -8 10 0
-5 10 -7 0
-11 -1 -5 0
-4 6 -9 0
-9 2 7 0
-3 -10 -5 0
9 -8 12 0
-11 -12 -13 0
9 11 3 0
-9 -1 11 0
6 5 1 0
-4 -7 -2 0
-7 2 9 0
-9 10 2 0
7 8 4 0
-7 -8 4 0
-11 9 -1 0
-2 -12 6 0
3 6 11 0
-11 7 8 0
7 -10 5 0
-9 3 -7 0
12 -10 -1 0
-8 13 2 0
2 -6 5 0
-1 6 10 0
-13 2 -9 0
-5 11 -2 0
